0 0 0 0
0 1 0 0
0 2 0 0
0 3 0 0
0 4 0 1
0 5 2 1
0 6 0 1
0 7 0 3
0 8 1 1
0 9 0 3
0 10 0 4
0 11 0 4
0 12 0 6
0 13 0 4
0 14 1 4
0 15 0 10
0 16 1 6
0 17 2 13
0 18 0 10
0 19 0 13
0 20 2 13
0 21 2 7
0 22 0 16
0 23 2 10
0 24 1 15
0 25 0 20
0 26 0 20
0 27 2 20
0 28 0 24
0 29 0 19
0 30 0 24
0 31 0 26
